
Gurobi 11.0.3 (linux64) logging started Mon Aug 25 15:04:22 2025

Set parameter LogFile to value "/home/yihong/Coding/OR_SUC/SUC_epstheta_results_bigM100000_thread4/case24_ieee_rts_theta0.1_epsilon0.1_gurobi_seed130000_num_gen100_N_WDR50_load_scaling_factor1_proposed_eps_T8quadra_cost_bc1.01.txt"
Set parameter TimeLimit to value 3600
Gurobi Optimizer version 11.0.3 build v11.0.3rc0 (linux64 - "Ubuntu 20.04.6 LTS")

CPU model: AMD EPYC 7532 32-Core Processor, instruction set [SSE2|AVX|AVX2]
Thread count: 64 physical cores, 128 logical processors, using up to 4 threads

Academic license 2399124 - for non-commercial use only - registered to yi___@ed.ac.uk
Optimize a model with 18804 rows, 9971 columns and 437334 nonzeros
Model fingerprint: 0x77d582f2
Model has 800 quadratic constraints
Variable types: 9171 continuous, 800 integer (800 binary)
Coefficient statistics:
  Matrix range     [3e-04, 2e+03]
  QMatrix range    [2e-03, 8e-03]
  QLMatrix range   [2e-01, 6e+01]
  Objective range  [1e+00, 1e+00]
  Bounds range     [1e+00, 1e+00]
  RHS range        [1e+00, 9e+03]
Presolve removed 15399 rows and 4304 columns
Presolve time: 0.13s
Presolved: 3405 rows, 5667 columns, 19323 nonzeros
Presolved model has 800 quadratic constraint(s)
Variable types: 4867 continuous, 800 integer (800 binary)

Root relaxation: objective 9.082465e+03, 2708 iterations, 0.05 seconds (0.06 work units)

    Nodes    |    Current Node    |     Objective Bounds      |     Work
 Expl Unexpl |  Obj  Depth IntInf | Incumbent    BestBd   Gap | It/Node Time

     0     0 9082.46482    0    8          - 9082.46482      -     -    0s
     0     0 141594.474    0  192          - 141594.474      -     -    0s
     0     0 141599.795    0  192          - 141599.795      -     -    0s
     0     0 237220.907    0  134          - 237220.907      -     -    0s
     0     0 237222.594    0  134          - 237222.594      -     -    0s
     0     0 237273.938    0  110          - 237273.938      -     -    0s
     0     0 237274.273    0  110          - 237274.273      -     -    0s
     0     0 237274.449    0  110          - 237274.449      -     -    0s
     0     2 237274.449    0  110          - 237274.449      -     -    1s
H  282   246                    237316.17834 237274.522  0.02%   7.3    1s
*  282   246              70    237316.17834 237274.522  0.02%   7.4    1s

Cutting planes:
  Gomory: 105
  Implied bound: 210
  MIR: 20
  Flow cover: 67

Explored 284 nodes (8862 simplex iterations) in 2.05 seconds (1.60 work units)
Thread count was 4 (of 128 available processors)

Solution count 2: 237316 237316 

Optimal solution found (tolerance 1.00e-03)
Warning: max constraint violation (3.6061e-07) exceeds tolerance
Best objective 2.373161783359e+05, best bound 2.372745219554e+05, gap 0.0176%

Gurobi 11.0.3 (linux64) logging started Mon Aug 25 15:04:25 2025

Set parameter LogFile to value "/home/yihong/Coding/OR_SUC/SUC_epstheta_results_bigM100000_thread4/case24_ieee_rts_theta0.1_epsilon0.1_gurobi_seed130000_num_gen100_N_WDR50_load_scaling_factor1_proposed_eps_T8quadra_cost_bc1.01.txt"
Set parameter TimeLimit to value 3600
Gurobi Optimizer version 11.0.3 build v11.0.3rc0 (linux64 - "Ubuntu 20.04.6 LTS")

CPU model: AMD EPYC 7532 32-Core Processor, instruction set [SSE2|AVX|AVX2]
Thread count: 64 physical cores, 128 logical processors, using up to 4 threads

Academic license 2399124 - for non-commercial use only - registered to yi___@ed.ac.uk
Optimize a model with 18804 rows, 9972 columns and 439763 nonzeros
Model fingerprint: 0x3fe98927
Model has 801 quadratic constraints
Variable types: 9172 continuous, 800 integer (800 binary)
Coefficient statistics:
  Matrix range     [3e-04, 2e+03]
  QMatrix range    [2e-03, 5e+01]
  QLMatrix range   [2e-01, 6e+01]
  Objective range  [1e+00, 1e+00]
  Bounds range     [1e-01, 1e+00]
  RHS range        [1e+00, 2e+05]
  QRHS range       [5e+00, 5e+00]
Presolve removed 14009 rows and 3611 columns
Presolve time: 0.20s
Presolved: 5597 rows, 7161 columns, 29245 nonzeros
Presolved model has 800 quadratic constraint(s)
Presolved model has 1 bilinear constraint(s)

Solving non-convex MIQCP

Variable types: 6357 continuous, 804 integer (804 binary)

Root relaxation: objective 1.489140e-03, 7310 iterations, 0.32 seconds (0.44 work units)

    Nodes    |    Current Node    |     Objective Bounds      |     Work
 Expl Unexpl |  Obj  Depth IntInf | Incumbent    BestBd   Gap | It/Node Time

     0     0    0.00149    0   17          -    0.00149      -     -    1s
     0     0    0.00149    0    9          -    0.00149      -     -    1s
     0     0    0.00149    0    9          -    0.00149      -     -    1s
     0     0    0.00207    0    9          -    0.00207      -     -    1s
H    0     0                       0.0292073    0.00207  92.9%     -    1s
     0     0    0.02821    0    9    0.02921    0.02821  3.42%     -    1s
     0     0    0.02821    0    9    0.02921    0.02821  3.41%     -    1s
     0     0    0.02821    0    9    0.02921    0.02821  3.40%     -    1s
     0     0    0.02822    0    9    0.02921    0.02822  3.39%     -    1s
     0     0    0.02822    0    9    0.02921    0.02822  3.39%     -    1s
     0     0    0.02822    0    9    0.02921    0.02822  3.38%     -    1s
     0     0    0.02822    0    9    0.02921    0.02822  3.38%     -    1s
     0     0    0.02822    0    9    0.02921    0.02822  3.38%     -    1s
     0     0    0.02822    0    9    0.02921    0.02822  3.38%     -    1s
     0     2    0.02822    0    9    0.02921    0.02822  3.38%     -    2s
H  102    35                       0.0288794    0.02826  2.13%   9.4    3s
*  102    35              26       0.0288794    0.02826  2.13%   9.4    3s
H  112    37                       0.0288754    0.02833  1.90%   9.3    4s
*  112    37              28       0.0288754    0.02833  1.90%   9.4    4s
H  124    35                       0.0288754    0.02833  1.90%   9.3    4s
*  124    35              31       0.0288754    0.02833  1.90%   9.4    4s
   221    39          -   13         0.02888    0.02855  1.11%  10.8    5s
H  246    30                       0.0286262    0.02863  0.00%  10.5    5s
*  246    30              33       0.0286262    0.02863  0.00%  10.5    5s

Cutting planes:
  Implied bound: 9
  Flow cover: 1
  RLT: 11
  PSD: 8

Explored 268 nodes (11043 simplex iterations) in 5.77 seconds (5.58 work units)
Thread count was 4 (of 128 available processors)

Solution count 6: 0.0286262 0.0286262 0.0288754 ... 0.0292073

Optimal solution found (tolerance 1.00e-03)
Warning: max constraint violation (5.1685e-05) exceeds tolerance
Best objective 2.862616049244e-02, best bound 2.862567321117e-02, gap 0.0017%
